(set-logic LIA)

(declare-const y Int)
(declare-const y! Int)
(declare-const x Int)
(declare-const x! Int)
(declare-const n Int)
(declare-const n! Int)

(declare-const y_24 Int)
(declare-const y_17 Int)
(declare-const y_0 Int)
(declare-const x_23 Int)
(declare-const x_18 Int)
(declare-const x_16 Int)
(declare-const n_0 Int)

(define-fun inv-f((n Int)(x Int)(y Int)) Bool
